%chk=water.chk
%nproc=4
%mem=4GB
#P OPT BP86/cc-pvdz

water.xyz #P OPT BP86/cc-pvdz

0 1
O	0.0582864312975	0.01748592938925	0.0394732216294	
H	0.99067129922779	0.29720138976834	-0.05011434927988	
H	-0.04895773052529	-0.01468731915759	1.01064112765048	

