! OPT BP86 cc-pvdz

%pal
nproc = 4
end

%maxcore  1024

* xyzfile 0 1 water.xyz
